c Output_time 26.03.2020 18:13:11_+0100 1585242791936679155
c ** Program information **
c program_name                          "QBRG_debug"
c version                               "0.3.20"
c date                                  "25.3.2020"
c gid_id                                "673970833836058123f633335630c185360d632e"
c author                                "Oliver Kullmann"
c url                                   "https://github.com/OKullmann/oklibrary/blob/master/Satisfiability/Transformers/Generators/Random/QBRG.cpp"
c ** Machine information **
c machine_name                          "chyna-Lenovo-G50-70"
c bogomips                              3791.08
c ** Compilation information **
c compiler_version                      "g++ 7.5.0"
c compilation_date                      "Mar_26_2020 11:16:30"
c compilation_options                   "--std=c++17 -pedantic -fmax-errors=5 -Wall -Wextra -g -D_GLIBCXX_DEBUG"
c NDEBUG                                0
c OPTIMIZE                              0
c ** Parameters **
c command-line                          "./QBRG_debug" "e40 a40 40" "233*1,1|2-2,1|3-3,1" "" "1,t" ""
c output                                "QuBlRaGe_120_233_1585242791908262781.qdimacs"
c options                               "filtered,renamed"
c num_quantifier_blocks                 3
c  quantifier_blocks                    1:e1-40 2:a41-80 3:e81-120
c num_clause-blocks                     1
c  clause-blocks                        233 * {1-40,1,1/2} | {41-80,1,1/2} | {81-120,1,1/2}
c num_e-seeds                           30+2=32
c  e-seeds                              1 0 1 0 4 120 2 40 1 40 0 40 1 233 3 1 1 1 1 2 2 2 1 1 2 3 3 1 1 2 1 1585242791908262270
p cnf 119 233
e 1 2 3 4 5 6 7 8 9 10 11 12 13 14 15 16 17 18 19 20 21 22 23 24 25 26 27 28 29 30 31 32 33 34 35 36 37 38 39 40 0
a 41 42 43 44 45 46 47 48 49 50 51 52 53 54 55 56 57 58 59 60 61 62 63 64 65 66 67 68 69 70 71 72 73 74 75 76 77 78 79 0
e 80 81 82 83 84 85 86 87 88 89 90 91 92 93 94 95 96 97 98 99 100 101 102 103 104 105 106 107 108 109 110 111 112 113 114 115 116 117 118 119 0
-24 -41 -80 0
11 -72 -80 0
27 -79 -80 0
15 45 80 0
-9 -53 80 0
15 -61 80 0
23 -64 80 0
8 -74 80 0
-10 77 80 0
36 -45 -81 0
9 53 -81 0
3 66 -81 0
31 66 -81 0
-21 68 -81 0
-3 68 81 0
-27 46 -82 0
40 51 -82 0
34 45 82 0
5 47 82 0
-36 53 82 0
-6 72 -83 0
6 -76 -83 0
-29 -76 83 0
-11 42 -84 0
28 -43 -84 0
34 58 -84 0
12 -68 -84 0
-6 75 -84 0
-7 76 -84 0
29 -45 84 0
-32 -74 84 0
-38 -45 -85 0
-13 63 -85 0
12 64 -85 0
6 -69 -85 0
-1 41 85 0
-20 -50 85 0
39 -59 85 0
26 66 85 0
-40 -70 85 0
-34 77 85 0
15 43 -86 0
10 48 -86 0
-17 -62 -86 0
12 -43 86 0
37 -58 86 0
37 -46 -87 0
-40 -47 -87 0
4 -51 -87 0
-26 -59 -87 0
9 -73 -87 0
-2 -78 -87 0
27 46 87 0
16 54 87 0
23 -62 87 0
28 -66 87 0
10 46 -88 0
-4 54 -88 0
-33 57 -88 0
14 -53 89 0
-8 -70 89 0
30 -76 89 0
-9 45 -90 0
-5 53 -90 0
37 66 -90 0
31 51 90 0
-33 62 90 0
-9 -72 90 0
4 73 90 0
-16 -42 -91 0
21 -50 91 0
31 -65 91 0
39 76 -92 0
-12 79 -92 0
23 -53 92 0
14 65 92 0
-28 44 -93 0
-22 -49 -93 0
12 54 -93 0
25 -59 93 0
-28 -65 93 0
14 70 93 0
21 79 93 0
-24 48 -94 0
-30 49 -94 0
-13 -69 -94 0
29 -57 94 0
-13 -50 -95 0
38 51 -95 0
5 -64 -95 0
16 -69 -95 0
37 79 -95 0
-1 -49 95 0
2 73 95 0
-5 74 95 0
-5 41 -96 0
-21 -50 96 0
-37 59 96 0
-19 73 96 0
-18 56 -97 0
-19 65 -97 0
-1 71 -97 0
-16 -41 -98 0
-26 60 -98 0
20 -64 -98 0
2 72 -98 0
-10 73 -98 0
29 -48 98 0
-21 48 98 0
38 -57 98 0
-21 -55 -99 0
-3 -44 99 0
-26 60 99 0
-26 -64 99 0
-16 -68 99 0
-28 76 99 0
-12 43 -100 0
-3 -44 -100 0
27 -49 -100 0
12 -51 -100 0
-13 51 -100 0
-4 -57 -100 0
-1 47 100 0
10 -69 100 0
-31 42 -101 0
29 -51 -101 0
3 54 -101 0
17 -57 -101 0
-25 43 101 0
10 54 101 0
32 60 101 0
-2 64 101 0
-32 75 101 0
31 -42 -102 0
-15 57 -102 0
40 69 -102 0
11 79 -102 0
-12 49 102 0
-9 62 102 0
13 66 102 0
-6 53 -103 0
-36 57 -103 0
-40 68 -103 0
5 -49 103 0
-1 -58 103 0
-16 53 -104 0
-2 -59 -104 0
-14 -78 -104 0
31 -45 104 0
26 53 104 0
-28 -63 104 0
34 -65 104 0
-7 47 -105 0
-29 -66 -105 0
-3 67 -105 0
-20 67 -105 0
-40 -70 -105 0
19 -79 -105 0
-36 42 105 0
-17 44 105 0
13 -63 105 0
26 43 -106 0
-30 56 -106 0
14 -66 106 0
-2 -77 106 0
12 -78 106 0
21 -42 -107 0
9 -43 -107 0
-21 -48 -107 0
-39 -45 107 0
40 48 107 0
-14 52 107 0
-24 -54 107 0
-22 -56 107 0
-11 79 107 0
38 -73 -108 0
10 -74 -108 0
40 -79 -108 0
-10 41 108 0
-28 61 108 0
-33 -79 108 0
20 -48 -109 0
-39 -54 -109 0
21 57 -109 0
23 47 109 0
-17 -55 109 0
35 -55 109 0
15 58 109 0
17 42 -110 0
37 -62 -110 0
18 63 -110 0
-36 -68 -110 0
18 69 -110 0
-16 46 -111 0
24 50 111 0
-3 -55 111 0
31 -54 -112 0
21 55 -112 0
7 70 -112 0
-15 -65 112 0
8 65 112 0
7 -68 112 0
-38 71 112 0
-8 75 112 0
27 -77 112 0
-12 43 113 0
30 -71 113 0
38 -79 113 0
-3 42 -114 0
5 47 114 0
1 55 114 0
-16 55 114 0
12 74 114 0
-39 -75 114 0
-8 -41 -115 0
20 -42 -115 0
34 42 -115 0
31 52 115 0
-1 -51 -116 0
1 56 -116 0
19 -68 -116 0
6 -68 116 0
12 73 116 0
11 72 -117 0
30 -47 117 0
-23 50 117 0
-3 60 -118 0
28 -76 -118 0
-22 55 118 0
23 65 118 0
-6 -78 -119 0
-12 -78 -119 0
4 49 119 0
